% demand
num_movements = 22;
loading_factor = [1650, 1950, 950, 1850, 1650, 1450, 1250, 850, 1400, 1150, 1650, 800, 1600, 1000, 850, 1100, 1650, 1050, 1850, 1400, 1250, 1500];
pickup_time = [0, 1, 1, 1, 1, 2, 3, 4, 5, 6, 6, 6, 7, 7, 7, 7, 8, 9, 10, 10, 10, 10];
delivery_time = [1, 3, 2, 3, 2, 3, 6, 10, 7, 7, 7, 8, 8, 11, 10, 10, 10, 10, 11, 11, 11, 11];

% transporter definition
total_capacity = 7000;
num_decks = 3;
capacity = [3000, 1000, 3000];

% ways out of decks
num_ways_out = 1;
paths_out = array3d(decks, ways_out, decks, [
% ways out of deck d1
2, 3, 0, 

% ways out of deck d2
3, 0, 0, 

% ways out of deck d3
0, 0, 0,	

]);

